HUN,8,6,660
0,75,3,45,4,55,2,21,1,59,5,6
3,75,5,5,1,9,0,41,4,29,2,4
2,7,1,24,4,71,3,39,0,35,5,90
1,36,3,82,4,42,5,26,2,100,0,67
3,89,1,61,4,19,5,97,0,77,2,18
1,29,5,15,2,75,3,70,0,27,4,57
1,51,5,49,2,37,3,23,0,59,4,12
1,76,4,47,0,53,2,50,3,8,5,91
